
n_res = 8;
rcap = [28, 23, 30, 30, 777, 860, 839, 900];
rtype = [1, 1, 1, 1, 2, 2, 2, 2];
n_tasks = 50;
modes =  [{1, 2, 3}, {4, 5, 6}, {7, 8, 9}, {10, 11, 12}, {13, 14, 15}, {16, 17, 18}, {19, 20, 21}, {22, 23, 24}, {25, 26, 27}, {28, 29, 30}, {31, 32, 33}, {34, 35, 36}, {37, 38, 39}, {40, 41, 42}, {43, 44, 45}, {46, 47, 48}, {49, 50, 51}, {52, 53, 54}, {55, 56, 57}, {58, 59, 60}, {61, 62, 63}, {64, 65, 66}, {67, 68, 69}, {70, 71, 72}, {73, 74, 75}, {76, 77, 78}, {79, 80, 81}, {82, 83, 84}, {85, 86, 87}, {88, 89, 90}, {91, 92, 93}, {94, 95, 96}, {97, 98, 99}, {100, 101, 102}, {103, 104, 105}, {106, 107, 108}, {109, 110, 111}, {112, 113, 114}, {115, 116, 117}, {118, 119, 120}, {121, 122, 123}, {124, 125, 126}, {127, 128, 129}, {130, 131, 132}, {133, 134, 135}, {136, 137, 138}, {139, 140, 141}, {142, 143, 144}, {145, 146, 147}, {148, 149, 150}];
succ =  [{23, 21, 16, 15, 13, 12, 8}, {23, 21, 20, 15, 14, 13, 11}, {29, 27, 26, 23, 16, 11}, {23, 17, 15, 12}, {24, 23, 14, 12}, {27, 23, 15, 12}, {26, 20, 12}, {35, 32, 31, 30, 29, 27, 26, 25, 24, 22}, {35, 32, 31, 30, 29, 27, 26, 25, 23, 22, 21}, {33, 31, 25, 22, 15}, {12}, {50, 33, 32, 28, 25, 19}, {50, 36, 35, 32, 30, 29, 28, 25, 22}, {50, 48, 47, 35, 34, 33, 32, 29, 28, 26}, {50, 37, 35, 32, 30, 29, 28, 26}, {50, 48, 35, 32, 31, 30, 24, 22}, {46, 36, 35, 33, 30, 27, 25}, {50, 49, 47, 39, 35, 34, 28, 25}, {49, 48, 37, 35, 31, 30, 22}, {48, 47, 44, 37, 35, 34, 32, 29, 28}, {49, 47, 46, 45, 44, 42, 39, 38}, {46, 45, 44, 43, 42, 39, 38}, {46, 45, 44, 43, 38, 34}, {45, 44, 33, 28}, {48, 45, 44, 43, 41, 37}, {49, 44, 42, 39, 38, 36}, {50, 48, 44, 43, 41, 38}, {46, 43, 42, 41, 40}, {49, 46, 45, 42, 40}, {47, 43, 34}, {43, 40, 34}, {43, 42, 41}, {43, 42, 40}, {42, 41}, {45, 40}, {41, 40}, {38}, {40}, {41}, {}, {}, {}, {}, {}, {}, {}, {}, {}, {}, {}];
n_opt = 150;
dur = [1, 15, 18, 5, 12, 24, 11, 27, 28, 2, 27, 30, 5, 10, 25, 1, 4, 21, 10, 20, 22, 8, 13, 19, 4, 13, 29, 5, 12, 14, 25, 27, 28, 2, 13, 28, 21, 25, 29, 1, 8, 22, 4, 12, 17, 7, 18, 19, 9, 17, 18, 1, 5, 8, 12, 14, 18, 16, 23, 26, 6, 9, 26, 13, 21, 27, 3, 21, 22, 7, 13, 15, 7, 12, 19, 8, 14, 22, 5, 6, 20, 9, 16, 28, 4, 9, 13, 1, 16, 24, 1, 9, 22, 3, 9, 18, 7, 25, 27, 1, 17, 30, 10, 20, 21, 14, 25, 26, 4, 15, 30, 22, 26, 27, 8, 11, 12, 6, 11, 16, 3, 10, 11, 4, 17, 28, 1, 9, 26, 3, 14, 16, 11, 18, 19, 3, 5, 12, 4, 7, 16, 5, 20, 23, 6, 14, 18, 2, 5, 30];
rreq = [|2, 2, 2, 2, 2, 2, 4, 2, 2, 3, 3, 2, 4, 3, 2, 5, 4, 3, 3, 2, 2, 4, 4, 4, 3, 3, 3, 5, 4, 2, 1, 1, 1, 2, 1, 1, 3, 2, 2, 2, 2, 1, 4, 4, 4, 5, 4, 2, 2, 1, 1, 5, 5, 5, 5, 4, 4, 5, 4, 3, 5, 2, 1, 5, 5, 5, 4, 3, 2, 2, 1, 1, 2, 2, 2, 2, 2, 2, 3, 2, 2, 4, 4, 4, 4, 4, 4, 3, 2, 1, 4, 3, 2, 3, 2, 1, 3, 2, 2, 5, 3, 3, 5, 5, 5, 2, 1, 1, 4, 3, 3, 5, 3, 3, 1, 1, 1, 1, 1, 1, 1, 1, 1, 5, 4, 4, 2, 2, 2, 4, 3, 2, 3, 3, 3, 4, 4, 4, 3, 1, 1, 5, 5, 5, 2, 1, 1, 4, 2, 1
 |1, 1, 1, 3, 2, 2, 4, 3, 3, 3, 1, 1, 4, 2, 2, 3, 1, 1, 3, 2, 1, 1, 1, 1, 2, 1, 1, 4, 4, 4, 5, 5, 5, 3, 3, 2, 4, 3, 2, 4, 4, 3, 4, 4, 3, 2, 1, 1, 1, 1, 1, 3, 3, 3, 2, 2, 2, 3, 2, 2, 5, 2, 2, 4, 3, 3, 2, 2, 2, 5, 3, 3, 3, 3, 3, 3, 3, 1, 4, 3, 3, 5, 5, 5, 4, 4, 3, 3, 1, 1, 4, 4, 4, 4, 2, 2, 2, 2, 2, 2, 2, 2, 3, 3, 3, 4, 4, 4, 3, 1, 1, 4, 4, 4, 4, 4, 4, 4, 3, 1, 3, 2, 2, 4, 3, 1, 5, 3, 3, 4, 2, 2, 5, 3, 3, 3, 2, 2, 5, 4, 3, 3, 3, 3, 3, 2, 2, 5, 3, 1
 |3, 3, 2, 2, 1, 1, 4, 3, 2, 5, 2, 2, 4, 2, 2, 3, 3, 3, 4, 2, 2, 2, 2, 2, 5, 4, 4, 4, 4, 4, 5, 4, 4, 4, 4, 4, 4, 3, 2, 3, 3, 2, 4, 3, 2, 3, 3, 3, 4, 3, 3, 5, 4, 4, 2, 1, 1, 5, 4, 4, 4, 2, 1, 3, 3, 2, 3, 3, 3, 3, 3, 2, 2, 2, 2, 2, 1, 1, 3, 2, 1, 3, 2, 2, 3, 2, 1, 3, 2, 2, 2, 1, 1, 1, 1, 1, 5, 4, 3, 4, 3, 2, 2, 2, 2, 3, 2, 1, 3, 3, 2, 3, 2, 1, 4, 3, 3, 3, 3, 1, 4, 4, 3, 3, 1, 1, 5, 4, 3, 4, 4, 4, 5, 2, 1, 3, 3, 2, 3, 3, 3, 5, 4, 3, 2, 2, 2, 5, 3, 3
 |5, 3, 3, 4, 2, 1, 1, 1, 1, 5, 3, 2, 5, 4, 4, 3, 1, 1, 4, 3, 1, 4, 3, 3, 4, 4, 2, 3, 2, 1, 4, 2, 2, 3, 3, 1, 2, 1, 1, 3, 2, 2, 3, 3, 3, 4, 3, 2, 3, 2, 1, 5, 3, 3, 3, 3, 3, 2, 1, 1, 2, 1, 1, 4, 3, 2, 5, 5, 5, 4, 4, 4, 4, 4, 4, 4, 4, 4, 3, 3, 3, 4, 3, 2, 1, 1, 1, 4, 4, 3, 2, 1, 1, 4, 2, 2, 5, 4, 3, 5, 5, 5, 3, 2, 1, 3, 3, 2, 5, 3, 3, 5, 4, 4, 2, 2, 2, 1, 1, 1, 3, 3, 2, 2, 2, 2, 2, 1, 1, 2, 2, 2, 3, 2, 2, 4, 4, 3, 5, 3, 3, 4, 4, 3, 4, 3, 3, 3, 3, 3
 |15, 14, 14, 28, 25, 25, 15, 13, 9, 8, 6, 5, 11, 8, 2, 21, 20, 16, 24, 12, 5, 6, 5, 5, 12, 12, 12, 13, 11, 7, 24, 21, 15, 22, 21, 19, 15, 15, 13, 27, 26, 26, 9, 4, 2, 14, 10, 8, 14, 13, 4, 23, 19, 17, 25, 23, 19, 22, 19, 16, 17, 13, 11, 25, 23, 22, 24, 22, 15, 17, 15, 13, 27, 22, 17, 19, 18, 17, 25, 24, 20, 24, 17, 7, 29, 17, 10, 5, 4, 3, 6, 6, 6, 25, 19, 11, 13, 12, 11, 10, 8, 3, 6, 6, 5, 22, 16, 9, 13, 13, 11, 15, 13, 13, 13, 10, 6, 10, 10, 7, 8, 6, 3, 26, 20, 17, 27, 23, 19, 24, 17, 11, 13, 12, 11, 16, 14, 5, 20, 14, 9, 6, 3, 3, 12, 8, 3, 11, 10, 6
 |4, 3, 3, 27, 15, 3, 28, 27, 25, 17, 15, 13, 16, 15, 13, 19, 18, 17, 15, 11, 4, 15, 14, 11, 16, 10, 4, 1, 1, 1, 22, 22, 22, 30, 26, 26, 13, 11, 11, 22, 19, 15, 6, 4, 4, 17, 14, 7, 21, 21, 21, 24, 23, 23, 23, 21, 19, 14, 13, 12, 20, 18, 16, 27, 23, 22, 28, 25, 25, 24, 17, 6, 28, 22, 17, 16, 9, 6, 16, 13, 6, 9, 7, 7, 14, 11, 8, 11, 11, 11, 20, 17, 17, 26, 24, 19, 8, 7, 2, 19, 12, 7, 23, 18, 8, 23, 19, 7, 26, 24, 24, 14, 11, 8, 23, 18, 18, 26, 22, 16, 11, 6, 4, 21, 20, 19, 23, 15, 7, 18, 13, 9, 25, 16, 2, 12, 10, 4, 13, 13, 11, 29, 29, 29, 24, 22, 22, 14, 9, 6
 |12, 12, 12, 17, 11, 8, 21, 19, 18, 27, 16, 6, 19, 16, 16, 29, 29, 29, 14, 13, 13, 9, 9, 7, 19, 17, 15, 24, 24, 20, 21, 14, 4, 2, 2, 2, 15, 14, 11, 24, 22, 16, 8, 6, 2, 21, 17, 12, 12, 12, 11, 26, 25, 22, 19, 19, 19, 19, 15, 6, 25, 21, 21, 24, 21, 17, 21, 20, 20, 23, 15, 8, 28, 21, 19, 24, 11, 1, 20, 20, 19, 25, 18, 11, 13, 11, 11, 15, 14, 12, 17, 13, 11, 16, 14, 13, 28, 24, 18, 26, 19, 15, 12, 11, 11, 16, 14, 12, 1, 1, 1, 7, 7, 7, 18, 17, 5, 26, 25, 24, 30, 25, 18, 15, 14, 14, 11, 10, 10, 19, 15, 9, 11, 7, 5, 19, 19, 16, 8, 5, 3, 22, 18, 12, 8, 6, 3, 26, 25, 25
 |22, 16, 4, 10, 9, 8, 25, 13, 5, 19, 17, 2, 14, 13, 7, 27, 26, 24, 21, 18, 15, 28, 28, 28, 25, 24, 24, 23, 11, 10, 13, 8, 6, 23, 17, 15, 26, 22, 16, 13, 13, 13, 25, 17, 11, 9, 8, 8, 27, 18, 16, 29, 20, 10, 19, 10, 7, 5, 3, 2, 18, 17, 15, 19, 12, 5, 17, 16, 15, 14, 14, 13, 25, 24, 24, 23, 17, 11, 18, 18, 18, 26, 13, 11, 23, 12, 2, 9, 6, 3, 14, 14, 6, 18, 11, 4, 27, 25, 24, 27, 17, 7, 22, 12, 6, 25, 24, 18, 18, 16, 3, 20, 20, 20, 22, 16, 6, 20, 20, 20, 21, 20, 14, 8, 7, 4, 28, 23, 19, 10, 7, 5, 22, 22, 22, 24, 22, 20, 13, 10, 10, 22, 18, 15, 19, 15, 14, 25, 21, 15|];